WARNING: for repeatability, setting FPU to use double precision
============================[ Problem Statistics ]=============================
|                                                                             |
|  Number of variables:         74886                                         |
|  Number of clauses:          173314                                         |
|  Parse time:                   0.07 s                                       |
|                                                                             |
c ============================[ Search Statistics ]==============================
c | Conflicts |          ORIGINAL         |          LEARNT          | Progress |
c |           |    Vars  Clauses Literals |    Limit  Clauses Lit/Cl |          |
c ===============================================================================
c Switched to VSIDS.
c Switched to LRB.
c Switched to VSIDS.
c Switched to LRB.
c Switched to VSIDS.
c Switched to LRB.
c Switched to VSIDS.
c Switched to LRB.
c Switched to VSIDS.
c Switched to LRB.
c Switched to VSIDS.
c Switched to LRB.
c Switched to VSIDS.
c Switched to LRB.
c Switched to VSIDS.
c Switched to LRB.
c Switched to VSIDS.
c Switched to LRB.
c Switched to VSIDS.
c Switched to LRB.
c Switched to VSIDS.
c Switched to LRB.
c Switched to VSIDS.
c Switched to LRB.
c Switched to VSIDS.
c Switched to LRB.
c Switched to VSIDS.
c Switched to LRB.
c Switched to VSIDS.
c Switched to LRB.
c Switched to VSIDS.
c Switched to LRB.
c Switched to VSIDS.
c Switched to LRB.
c ===============================================================================
restarts                  : 68709
conflicts                 : 13282777       (3755 /sec)
decisions                 : 94741915       (0.00 % random) (26783 /sec)
propagations              : 7441853956     (2103772 /sec)
conflict literals         : 869129469      (11.37 % deleted)

conflicts w/ DIP found    : 11354698       (85.48 % of conflicts)
conflicts w/ dangerous DIP: 0              (0.00 % of conflicts)
conflicts w/ DIP-learning : 222131         (1.67 % of conflicts)
decisions on ext vars     : 17264251       (18.22 % of decisions)
total ext vars            : 19403       
tried delete ext vars     : 2           
deleted ext vars          : 2           
max ext vars              : 19401       

Memory used               : 720.00 MB
CPU time                  : 3537.39 s
DIP computation time      : 101.59 s (2.87 % of total time)
ER_sel time               : 17.6207 s
ER_add time               : 0.09074 s
ER_delC time              : 0 s
ER_delV time              : 0.001394 s
ER_sub time               : 22.025 s
ER_stat time              : 0 s

INDETERMINATE
